\ File written by Highs .lp filereader
min
 obj: +1 x0 +1 x1 +1 x2 +1 x3
st
 con0: +1 x0 +1 x1 +1 x2 +1 x3 >= +2
 con1: +1 x0 +1 x1 +1 x2 +1 x3 >= +2
 con2: +1 x0 +1 x1 +1 x2 +1 x3 >= +2
 con3: +1 x0 +1 x1 +1 x2 +1 x3 >= +2
 con4: +1 x0 +1 x1 +1 x2 >= +2  
bounds
 +0 <= x0 <= +1
 +0 <= x1 <= +1
 +0 <= x2 <= +1
 +0 <= x3 <= +1
end
